HUN,8,6,785
2,19,0,4,1,4,4,6,5,13,3,19
1,29,0,9,2,7,4,22,5,13,3,20
2,12,0,10,1,7,3,4,4,11,5,25
2,20,0,1,1,6,3,15,5,18,4,2
1,11,2,11,0,10,4,7,5,23,3,30
1,8,2,9,0,4,5,21,4,26,3,25
2,26,1,24,0,20,4,20,5,24,3,11
1,29,0,13,2,6,5,15,4,24,3,22
